WARNING: for repeatability, setting FPU to use double precision
============================[ Problem Statistics ]=============================
|                                                                             |
|  Number of variables:           100                                         |
|  Number of clauses:             449                                         |
|  Parse time:                   0.00 s                                       |
|  Simplification time:          0.00 s                                       |
|                                                                             |
============================[ Search Statistics ]==============================
| Conflicts |          ORIGINAL         |          LEARNT          | Progress |
|           |    Vars  Clauses Literals |    Limit  Clauses Lit/Cl |          |
===============================================================================
|       100 |     100      449     1347 |      164      100      7 |  0.010 % |
===============================================================================
restarts              : 2
conflicts             : 132            (42335 /sec)
decisions             : 153            (0.00 % random) (49070 /sec)
propagations          : 3334           (1069275 /sec)
conflict literals     : 890            (15.64 % deleted)
Memory used           : 13.00 MB
CPU time              : 0.003118 s

SATISFIABLE
